40
    37    29    53    10    69    83    16    13    25    55    18    73    51     2     4    63    22    34     3    57    42    13    18    31    40    56    32    65    76    32     5    43    38    63    76    51    40    26    63    79
     2     8     1    10     5     1     6     3     1     4     4     8     1     7     5     6     2     3     2    10     1    10     4     4     2     6     9     3    10    10     2     2     5     1    10     7     9     2     4     6
   661  1410   923   401  1076  1203   573  1355  1202   647   449   846   818  1337  1200   589  1170  1086   952   664  1001  1267   637  1396   923   672   993   756   723  1567  1476  1369  1178   994  1102  1502  1361   678  1217   788
